4 10 100 1 2
0 200
 1 35.00 35.00 0.00 0.00 0.00 0 0 0 230
 2 41.00 49.00 10.00 10.00 18.00 1 1 1 0 204
 3 35.00 17.00 10.00 7.00 10.00 1 1 1 0 202
 4 55.00 45.00 10.00 13.00 13.00 1 1 1 0 197
 5 55.00 20.00 10.00 19.00 18.00 1 1 1 139 169
 6 15.00 30.00 10.00 26.00 2.00 1 1 1 0 199
 7 25.00 30.00 10.00 3.00 5.00 1 1 1 89 119
 8 20.00 50.00 10.00 5.00 10.00 1 1 1 0 198
 9 10.00 43.00 10.00 9.00 36.00 1 1 1 85 115
 10 55.00 60.00 10.00 16.00 20.00 1 1 1 87 117
 11 30.00 60.00 10.00 16.00 21.00 1 1 1 114 144
 12 20.00 65.00 10.00 12.00 26.00 1 1 1 57 87
 13 50.00 35.00 10.00 19.00 3.00 1 1 1 0 205
 14 30.00 25.00 10.00 23.00 18.00 1 1 1 149 179
 15 15.00 10.00 10.00 20.00 17.00 1 1 1 0 187
 16 30.00 5.00 10.00 8.00 5.00 1 1 1 51 81
 17 10.00 20.00 10.00 19.00 9.00 1 1 1 0 190
 18 5.00 30.00 10.00 2.00 15.00 1 1 1 147 177
 19 20.00 40.00 10.00 12.00 9.00 1 1 1 0 204
 20 15.00 60.00 10.00 17.00 20.00 1 1 1 0 187
 21 45.00 65.00 10.00 9.00 36.00 1 1 1 0 188
 22 45.00 20.00 10.00 11.00 5.00 1 1 1 0 201
 23 45.00 10.00 10.00 18.00 6.00 1 1 1 87 117
 24 55.00 5.00 10.00 29.00 9.00 1 1 1 58 88
 25 65.00 35.00 10.00 3.00 6.00 1 1 1 0 190
 26 65.00 20.00 10.00 6.00 19.00 1 1 1 156 186
 27 45.00 30.00 10.00 17.00 6.00 1 1 1 0 208
 28 35.00 40.00 10.00 16.00 9.00 1 1 1 27 57
 29 41.00 37.00 10.00 16.00 19.00 1 1 1 0 213
 30 64.00 42.00 10.00 9.00 17.00 1 1 1 0 190
 31 40.00 60.00 10.00 21.00 18.00 1 1 1 61 91
 32 31.00 52.00 10.00 27.00 16.00 1 1 1 0 202
 33 35.00 69.00 10.00 23.00 26.00 1 1 1 0 186
 34 53.00 52.00 10.00 11.00 14.00 1 1 1 27 57
 35 65.00 55.00 10.00 14.00 20.00 1 1 1 0 183
 36 63.00 65.00 10.00 8.00 11.00 1 1 1 133 163
 37 2.00 60.00 10.00 5.00 11.00 1 1 1 41 71
 38 20.00 20.00 10.00 8.00 35.00 1 1 1 0 198
 39 5.00 5.00 10.00 16.00 14.00 1 1 1 73 103
 40 60.00 12.00 10.00 31.00 27.00 1 1 1 34 64
 41 40.00 25.00 10.00 9.00 8.00 1 1 1 75 105
 42 42.00 7.00 10.00 5.00 12.00 1 1 1 87 117
 43 24.00 12.00 10.00 5.00 11.00 1 1 1 25 55
 44 23.00 3.00 10.00 7.00 9.00 1 1 1 0 185
 45 11.00 14.00 10.00 18.00 12.00 1 1 1 59 89
 46 6.00 38.00 10.00 16.00 41.00 1 1 1 29 59
 47 2.00 48.00 10.00 1.00 9.00 1 1 1 0 184
 48 8.00 56.00 10.00 27.00 25.00 1 1 1 0 185
 49 13.00 52.00 10.00 36.00 16.00 1 1 1 0 192
 50 6.00 68.00 10.00 30.00 9.00 1 1 1 98 128
 51 47.00 47.00 10.00 13.00 1.00 1 1 1 0 203
 52 49.00 58.00 10.00 10.00 7.00 1 1 1 0 193
 53 27.00 43.00 10.00 9.00 15.00 1 1 1 0 208
 54 37.00 31.00 10.00 14.00 22.00 1 1 1 85 115
 55 57.00 29.00 10.00 18.00 13.00 1 1 1 0 197
 56 63.00 23.00 10.00 2.00 3.00 1 1 1 126 156
 57 53.00 12.00 10.00 6.00 8.00 1 1 1 120 150
 58 32.00 12.00 10.00 7.00 9.00 1 1 1 0 196
 59 36.00 26.00 10.00 18.00 23.00 1 1 1 180 210
 60 21.00 24.00 10.00 28.00 16.00 1 1 1 0 202
 61 17.00 34.00 10.00 3.00 19.00 1 1 1 0 201
 62 12.00 24.00 10.00 13.00 10.00 1 1 1 0 194
 63 24.00 58.00 10.00 19.00 16.00 1 1 1 48 78
 64 27.00 69.00 10.00 10.00 13.00 1 1 1 0 185
 65 15.00 77.00 10.00 9.00 13.00 1 1 1 63 93
 66 62.00 77.00 10.00 20.00 7.00 1 1 1 49 79
 67 49.00 73.00 10.00 25.00 27.00 1 1 1 117 147
 68 67.00 5.00 10.00 25.00 25.00 1 1 1 73 103
 69 56.00 39.00 10.00 36.00 23.00 1 1 1 132 162
 70 37.00 47.00 10.00 6.00 16.00 1 1 1 40 70
 71 37.00 56.00 10.00 5.00 31.00 1 1 1 168 198
 72 57.00 68.00 10.00 15.00 29.00 1 1 1 0 180
 73 47.00 16.00 10.00 25.00 28.00 1 1 1 0 197
 74 44.00 17.00 10.00 9.00 14.00 1 1 1 0 199
 75 46.00 13.00 10.00 8.00 8.00 1 1 1 139 169
 76 49.00 11.00 10.00 18.00 6.00 1 1 1 0 192
 77 49.00 42.00 10.00 13.00 30.00 1 1 1 63 93
 78 53.00 43.00 10.00 14.00 1.00 1 1 1 169 199
 79 61.00 52.00 10.00 3.00 3.00 1 1 1 86 116
 80 57.00 48.00 10.00 23.00 12.00 1 1 1 82 112
 81 56.00 37.00 10.00 6.00 18.00 1 1 1 168 198
 82 55.00 54.00 10.00 26.00 3.00 1 1 1 0 192
 83 15.00 47.00 10.00 16.00 27.00 1 1 1 0 196
 84 14.00 37.00 10.00 11.00 23.00 1 1 1 0 198
 85 11.00 31.00 10.00 7.00 16.00 1 1 1 91 121
 86 16.00 22.00 10.00 41.00 5.00 1 1 1 0 196
 87 4.00 18.00 10.00 35.00 2.00 1 1 1 0 184
 88 28.00 18.00 10.00 26.00 25.00 1 1 1 83 113
 89 26.00 52.00 10.00 9.00 9.00 1 1 1 64 94
 90 26.00 35.00 10.00 15.00 11.00 1 1 1 0 211
 91 31.00 67.00 10.00 3.00 7.00 1 1 1 0 187
 92 15.00 19.00 10.00 1.00 5.00 1 1 1 0 194
 93 22.00 22.00 10.00 2.00 10.00 1 1 1 18 48
 94 18.00 24.00 10.00 22.00 3.00 1 1 1 169 199
 95 26.00 27.00 10.00 27.00 16.00 1 1 1 0 207
 96 25.00 24.00 10.00 20.00 7.00 1 1 1 0 205
 97 22.00 27.00 10.00 11.00 17.00 1 1 1 0 204
 98 25.00 21.00 10.00 12.00 19.00 1 1 1 0 202
 99 19.00 21.00 10.00 10.00 2.00 1 1 1 0 198
 100 20.00 26.00 10.00 9.00 26.00 1 1 1 73 103
 101 18.00 18.00 10.00 17.00 8.00 1 1 1 165 195
